p cnf 60 227
1 2 3 4 0
5 6 7 8 0
9 10 11 12 0
13 14 15 16 0
17 18 19 20 0
21 22 23 24 0
25 26 27 28 0
29 30 31 32 0
33 34 35 36 0
37 38 39 40 0
41 42 43 44 0
45 46 47 48 0
49 50 51 52 0
53 54 55 56 0
57 58 59 60 0
-1 -9 0
-2 -10 0
-3 -11 0
-4 -12 0
-1 -13 0
-2 -14 0
-3 -15 0
-4 -16 0
-1 -17 0
-2 -18 0
-3 -19 0
-4 -20 0
-1 -41 0
-2 -42 0
-3 -43 0
-4 -44 0
-1 -49 0
-2 -50 0
-3 -51 0
-4 -52 0
-5 -17 0
-6 -18 0
-7 -19 0
-8 -20 0
-5 -29 0
-6 -30 0
-7 -31 0
-8 -32 0
-5 -37 0
-6 -38 0
-7 -39 0
-8 -40 0
-5 -45 0
-6 -46 0
-7 -47 0
-8 -48 0
-5 -49 0
-6 -50 0
-7 -51 0
-8 -52 0
-5 -53 0
-6 -54 0
-7 -55 0
-8 -56 0
-5 -57 0
-6 -58 0
-7 -59 0
-8 -60 0
-9 -13 0
-10 -14 0
-11 -15 0
-12 -16 0
-9 -25 0
-10 -26 0
-11 -27 0
-12 -28 0
-9 -37 0
-10 -38 0
-11 -39 0
-12 -40 0
-9 -41 0
-10 -42 0
-11 -43 0
-12 -44 0
-9 -45 0
-10 -46 0
-11 -47 0
-12 -48 0
-9 -49 0
-10 -50 0
-11 -51 0
-12 -52 0
-13 -21 0
-14 -22 0
-15 -23 0
-16 -24 0
-13 -25 0
-14 -26 0
-15 -27 0
-16 -28 0
-13 -29 0
-14 -30 0
-15 -31 0
-16 -32 0
-13 -37 0
-14 -38 0
-15 -39 0
-16 -40 0
-13 -45 0
-14 -46 0
-15 -47 0
-16 -48 0
-13 -49 0
-14 -50 0
-15 -51 0
-16 -52 0
-13 -53 0
-14 -54 0
-15 -55 0
-16 -56 0
-13 -57 0
-14 -58 0
-15 -59 0
-16 -60 0
-17 -21 0
-18 -22 0
-19 -23 0
-20 -24 0
-17 -25 0
-18 -26 0
-19 -27 0
-20 -28 0
-17 -29 0
-18 -30 0
-19 -31 0
-20 -32 0
-17 -33 0
-18 -34 0
-19 -35 0
-20 -36 0
-17 -37 0
-18 -38 0
-19 -39 0
-20 -40 0
-17 -45 0
-18 -46 0
-19 -47 0
-20 -48 0
-17 -57 0
-18 -58 0
-19 -59 0
-20 -60 0
-21 -25 0
-22 -26 0
-23 -27 0
-24 -28 0
-21 -33 0
-22 -34 0
-23 -35 0
-24 -36 0
-21 -37 0
-22 -38 0
-23 -39 0
-24 -40 0
-21 -41 0
-22 -42 0
-23 -43 0
-24 -44 0
-21 -57 0
-22 -58 0
-23 -59 0
-24 -60 0
-25 -29 0
-26 -30 0
-27 -31 0
-28 -32 0
-25 -33 0
-26 -34 0
-27 -35 0
-28 -36 0
-25 -41 0
-26 -42 0
-27 -43 0
-28 -44 0
-25 -49 0
-26 -50 0
-27 -51 0
-28 -52 0
-29 -33 0
-30 -34 0
-31 -35 0
-32 -36 0
-29 -37 0
-30 -38 0
-31 -39 0
-32 -40 0
-33 -37 0
-34 -38 0
-35 -39 0
-36 -40 0
-33 -45 0
-34 -46 0
-35 -47 0
-36 -48 0
-33 -49 0
-34 -50 0
-35 -51 0
-36 -52 0
-37 -45 0
-38 -46 0
-39 -47 0
-40 -48 0
-37 -49 0
-38 -50 0
-39 -51 0
-40 -52 0
-37 -53 0
-38 -54 0
-39 -55 0
-40 -56 0
-41 -45 0
-42 -46 0
-43 -47 0
-44 -48 0
-49 -53 0
-50 -54 0
-51 -55 0
-52 -56 0
-49 -57 0
-50 -58 0
-51 -59 0
-52 -60 0
